100
1000
698
690
688
687
673
666
664
662
662
659
659
651
646
645
638
634
628
622
617
616
615
610
593
591
589
589
584
582
582
571
570
563
557
553
552
546
545
541
536
534
531
529
525
502
502
489
488
485
481
464
454
451
451
450
441
439
432
423
419
411
399
398
398
392
381
377
377
374
371
360
358
348
347
345
343
337
334
332
331
323
319
315
306
306
297
291
284
281
279
277
276
274
252
249
245
238
236
221
220
217
